%%% static parameters %%%
timespan = 1;
Fact = [4];
Distr1 = [15];
Distr2 = [30];
Clients_N = [1000];
Demand_W = [15];
Lt0 = [4];
Lt1 = [4];
SS_ = [0.85];
DS_D = [8];
K = [200];
MA = [500];
%%% dynamic parameters %%%
lost_ratio_sales_ret_th = 0.027764929904960378;
lost_ratio_sales_ret_w = 41;
lost_ratio_sales_dis_th = 0.4009729449165118;
lost_ratio_sales_dis_w = 75;
lost_ratio_sales_fac_th = 0.14134505035197742;
lost_ratio_sales_fac_w = 19;
stock_customer_MA_mean_relative_th = 0.32434342367373736;
stock_customer_MA_mean_relative_w = 4;
stock_distributor_MA_mean_relative_th = 0.7793399088808264;
stock_distributor_MA_mean_relative_w = 7;
stock_retailer_MA_mean_relative_th = 0.039425599406356926;
stock_retailer_MA_mean_relative_w = 5;
stock_factory_MA_mean_relative_th = 0.9966961556030076;
stock_factory_MA_mean_relative_w = 82;
